set NODES:=Belluno Feltre Cortina_dAmpezzo Padova Abano_Terme Este Rovigo Adria Porto_Tolle Treviso Conegliano Milano Montebelluna Venezia Chioggia Mirano Verona Bardolino Peschiera_del_Garda Vicenza Bassano_del_Grappa Marostica;
param: ARCS: cost:=
Milano Bardolino 120
Milano Peschiera_del_Garda 117
Milano Verona 141
Milano Bassano_del_Grappa 201
Milano Marostica 195
Milano Vicenza 184
Milano Belluno 247
Milano Cortina_dAmpezzo 257
Milano Feltre 220
Milano Conegliano 247
Milano Montebelluna 225
Milano Treviso 239
Milano Chioggia 244
Milano Mirano 228
Milano Venezia 246
Milano Abano_Terme 204
Milano Este 195
Milano Padova 210
Milano Adria 230
Milano Porto_Tolle 254
Milano Rovigo 209
Bardolino Milano 120
Bardolino Peschiera_del_Garda 12
Bardolino Verona 25
Bardolino Bassano_del_Grappa 83
Bardolino Marostica 76
Bardolino Vicenza 65
Bardolino Belluno 134
Bardolino Cortina_dAmpezzo 155
Bardolino Feltre 106
Bardolino Conegliano 129
Bardolino Montebelluna 106
Bardolino Treviso 120
Bardolino Chioggia 127
Bardolino Mirano 109
Bardolino Venezia 127
Bardolino Abano_Terme 86
Bardolino Este 81
Bardolino Padova 92
Bardolino Adria 118
Bardolino Porto_Tolle 143
Bardolino Rovigo 99
Peschiera_del_Garda Milano 117
Peschiera_del_Garda Bardolino 12
Peschiera_del_Garda Verona 24
Peschiera_del_Garda Bassano_del_Grappa 89
Peschiera_del_Garda Marostica 83
Peschiera_del_Garda Vicenza 68
Peschiera_del_Garda Belluno 142
Peschiera_del_Garda Cortina_dAmpezzo 166
Peschiera_del_Garda Feltre 115
Peschiera_del_Garda Conegliano 135
Peschiera_del_Garda Montebelluna 112
Peschiera_del_Garda Treviso 124
Peschiera_del_Garda Chioggia 127
Peschiera_del_Garda Mirano 111
Peschiera_del_Garda Venezia 129
Peschiera_del_Garda Abano_Terme 86
Peschiera_del_Garda Este 79
Peschiera_del_Garda Padova 93
Peschiera_del_Garda Adria 115
Peschiera_del_Garda Porto_Tolle 140
Peschiera_del_Garda Rovigo 95
Verona Milano 141
Verona Bardolino 25
Verona Peschiera_del_Garda 24
Verona Bassano_del_Grappa 68
Verona Marostica 62
Verona Vicenza 45
Verona Belluno 123
Verona Cortina_dAmpezzo 151
Verona Feltre 96
Verona Conegliano 113
Verona Montebelluna 90
Verona Treviso 101
Verona Chioggia 104
Verona Mirano 87
Verona Venezia 105
Verona Abano_Terme 63
Verona Este 57
Verona Padova 69
Verona Adria 94
Verona Porto_Tolle 118
Verona Rovigo 75
Bassano_del_Grappa Milano 201
Bassano_del_Grappa Bardolino 83
Bassano_del_Grappa Peschiera_del_Garda 89
Bassano_del_Grappa Verona 68
Bassano_del_Grappa Marostica 6
Bassano_del_Grappa Vicenza 28
Bassano_del_Grappa Belluno 56
Bassano_del_Grappa Cortina_dAmpezzo 91
Bassano_del_Grappa Feltre 31
Bassano_del_Grappa Conegliano 46
Bassano_del_Grappa Montebelluna 24
Bassano_del_Grappa Treviso 41
Bassano_del_Grappa Chioggia 74
Bassano_del_Grappa Mirano 42
Bassano_del_Grappa Venezia 60
Bassano_del_Grappa Abano_Terme 46
Bassano_del_Grappa Este 60
Bassano_del_Grappa Padova 42
Bassano_del_Grappa Adria 83
Bassano_del_Grappa Porto_Tolle 102
Bassano_del_Grappa Rovigo 77
Marostica Milano 195
Marostica Bardolino 76
Marostica Peschiera_del_Garda 83
Marostica Verona 62
Marostica Bassano_del_Grappa 6
Marostica Vicenza 24
Marostica Belluno 61
Marostica Cortina_dAmpezzo 95
Marostica Feltre 36
Marostica Conegliano 52
Marostica Montebelluna 30
Marostica Treviso 47
Marostica Chioggia 76
Marostica Mirano 45
Marostica Venezia 64
Marostica Abano_Terme 44
Marostica Este 58
Marostica Padova 42
Marostica Adria 83
Marostica Porto_Tolle 103
Marostica Rovigo 76
Vicenza Milano 184
Vicenza Bardolino 65
Vicenza Peschiera_del_Garda 68
Vicenza Verona 45
Vicenza Bassano_del_Grappa 28
Vicenza Marostica 24
Vicenza Belluno 84
Vicenza Cortina_dAmpezzo 119
Vicenza Feltre 59
Vicenza Conegliano 70
Vicenza Montebelluna 46
Vicenza Treviso 56
Vicenza Chioggia 68
Vicenza Mirano 44
Vicenza Venezia 63
Vicenza Abano_Terme 28
Vicenza Este 37
Vicenza Padova 30
Vicenza Adria 68
Vicenza Porto_Tolle 91
Vicenza Rovigo 56
Belluno Milano 247
Belluno Bardolino 134
Belluno Peschiera_del_Garda 142
Belluno Verona 123
Belluno Bassano_del_Grappa 56
Belluno Marostica 61
Belluno Vicenza 84
Belluno Cortina_dAmpezzo 45
Belluno Feltre 27
Belluno Conegliano 29
Belluno Montebelluna 42
Belluno Treviso 52
Belluno Chioggia 102
Belluno Mirano 72
Belluno Venezia 79
Belluno Abano_Terme 93
Belluno Este 110
Belluno Padova 86
Belluno Adria 121
Belluno Porto_Tolle 132
Belluno Rovigo 123
Cortina_dAmpezzo Milano 257
Cortina_dAmpezzo Bardolino 155
Cortina_dAmpezzo Peschiera_del_Garda 166
Cortina_dAmpezzo Verona 151
Cortina_dAmpezzo Bassano_del_Grappa 91
Cortina_dAmpezzo Marostica 95
Cortina_dAmpezzo Vicenza 119
Cortina_dAmpezzo Belluno 45
Cortina_dAmpezzo Feltre 60
Cortina_dAmpezzo Conegliano 73
Cortina_dAmpezzo Montebelluna 85
Cortina_dAmpezzo Treviso 97
Cortina_dAmpezzo Chioggia 147
Cortina_dAmpezzo Mirano 116
Cortina_dAmpezzo Venezia 123
Cortina_dAmpezzo Abano_Terme 134
Cortina_dAmpezzo Este 150
Cortina_dAmpezzo Padova 127
Cortina_dAmpezzo Adria 165
Cortina_dAmpezzo Porto_Tolle 177
Cortina_dAmpezzo Rovigo 165
Feltre Milano 220
Feltre Bardolino 106
Feltre Peschiera_del_Garda 115
Feltre Verona 96
Feltre Bassano_del_Grappa 31
Feltre Marostica 36
Feltre Vicenza 59
Feltre Belluno 27
Feltre Cortina_dAmpezzo 60
Feltre Conegliano 33
Feltre Montebelluna 29
Feltre Treviso 47
Feltre Chioggia 93
Feltre Mirano 60
Feltre Venezia 73
Feltre Abano_Terme 74
Feltre Este 90
Feltre Padova 68
Feltre Adria 108
Feltre Porto_Tolle 123
Feltre Rovigo 106
Conegliano Milano 247
Conegliano Bardolino 129
Conegliano Peschiera_del_Garda 135
Conegliano Verona 113
Conegliano Bassano_del_Grappa 46
Conegliano Marostica 52
Conegliano Vicenza 70
Conegliano Belluno 29
Conegliano Cortina_dAmpezzo 73
Conegliano Feltre 33
Conegliano Montebelluna 23
Conegliano Treviso 25
Conegliano Chioggia 74
Conegliano Mirano 46
Conegliano Venezia 50
Conegliano Abano_Terme 71
Conegliano Este 89
Conegliano Padova 63
Conegliano Adria 94
Conegliano Porto_Tolle 104
Conegliano Rovigo 99
Montebelluna Milano 225
Montebelluna Bardolino 106
Montebelluna Peschiera_del_Garda 112
Montebelluna Verona 90
Montebelluna Bassano_del_Grappa 24
Montebelluna Marostica 30
Montebelluna Vicenza 46
Montebelluna Belluno 42
Montebelluna Cortina_dAmpezzo 85
Montebelluna Feltre 29
Montebelluna Conegliano 23
Montebelluna Treviso 20
Montebelluna Chioggia 64
Montebelluna Mirano 32
Montebelluna Venezia 44
Montebelluna Abano_Terme 50
Montebelluna Este 68
Montebelluna Padova 43
Montebelluna Adria 80
Montebelluna Porto_Tolle 94
Montebelluna Rovigo 81
Treviso Milano 239
Treviso Bardolino 120
Treviso Peschiera_del_Garda 124
Treviso Verona 101
Treviso Bassano_del_Grappa 41
Treviso Marostica 47
Treviso Vicenza 56
Treviso Belluno 52
Treviso Cortina_dAmpezzo 97
Treviso Feltre 47
Treviso Conegliano 25
Treviso Montebelluna 20
Treviso Chioggia 50
Treviso Mirano 22
Treviso Venezia 27
Treviso Abano_Terme 49
Treviso Este 67
Treviso Padova 41
Treviso Adria 70
Treviso Porto_Tolle 80
Treviso Rovigo 75
Chioggia Milano 244
Chioggia Bardolino 127
Chioggia Peschiera_del_Garda 127
Chioggia Verona 104
Chioggia Bassano_del_Grappa 74
Chioggia Marostica 76
Chioggia Vicenza 68
Chioggia Belluno 102
Chioggia Cortina_dAmpezzo 147
Chioggia Feltre 93
Chioggia Conegliano 74
Chioggia Montebelluna 64
Chioggia Treviso 50
Chioggia Mirano 33
Chioggia Venezia 24
Chioggia Abano_Terme 41
Chioggia Este 49
Chioggia Padova 38
Chioggia Adria 25
Chioggia Porto_Tolle 30
Chioggia Rovigo 42
Mirano Milano 228
Mirano Bardolino 109
Mirano Peschiera_del_Garda 111
Mirano Verona 87
Mirano Bassano_del_Grappa 42
Mirano Marostica 45
Mirano Vicenza 44
Mirano Belluno 72
Mirano Cortina_dAmpezzo 116
Mirano Feltre 60
Mirano Conegliano 46
Mirano Montebelluna 32
Mirano Treviso 22
Mirano Chioggia 33
Mirano Venezia 19
Mirano Abano_Terme 29
Mirano Este 46
Mirano Padova 21
Mirano Adria 49
Mirano Porto_Tolle 63
Mirano Rovigo 53
Venezia Milano 246
Venezia Bardolino 127
Venezia Peschiera_del_Garda 129
Venezia Verona 105
Venezia Bassano_del_Grappa 60
Venezia Marostica 64
Venezia Vicenza 63
Venezia Belluno 79
Venezia Cortina_dAmpezzo 123
Venezia Feltre 73
Venezia Conegliano 50
Venezia Montebelluna 44
Venezia Treviso 27
Venezia Chioggia 24
Venezia Mirano 19
Venezia Abano_Terme 44
Venezia Este 58
Venezia Padova 36
Venezia Adria 48
Venezia Porto_Tolle 54
Venezia Rovigo 59
Abano_Terme Milano 204
Abano_Terme Bardolino 86
Abano_Terme Peschiera_del_Garda 86
Abano_Terme Verona 63
Abano_Terme Bassano_del_Grappa 46
Abano_Terme Marostica 44
Abano_Terme Vicenza 28
Abano_Terme Belluno 93
Abano_Terme Cortina_dAmpezzo 134
Abano_Terme Feltre 74
Abano_Terme Conegliano 71
Abano_Terme Montebelluna 50
Abano_Terme Treviso 49
Abano_Terme Chioggia 41
Abano_Terme Mirano 29
Abano_Terme Venezia 44
Abano_Terme Este 18
Abano_Terme Padova 9
Abano_Terme Adria 40
Abano_Terme Porto_Tolle 62
Abano_Terme Rovigo 32
Este Milano 195
Este Bardolino 81
Este Peschiera_del_Garda 79
Este Verona 57
Este Bassano_del_Grappa 60
Este Marostica 58
Este Vicenza 37
Este Belluno 110
Este Cortina_dAmpezzo 150
Este Feltre 90
Este Conegliano 89
Este Montebelluna 68
Este Treviso 67
Este Chioggia 49
Este Mirano 46
Este Venezia 58
Este Abano_Terme 18
Este Padova 26
Este Adria 37
Este Porto_Tolle 62
Este Rovigo 20
Padova Milano 210
Padova Bardolino 92
Padova Peschiera_del_Garda 93
Padova Verona 69
Padova Bassano_del_Grappa 42
Padova Marostica 42
Padova Vicenza 30
Padova Belluno 86
Padova Cortina_dAmpezzo 127
Padova Feltre 68
Padova Conegliano 63
Padova Montebelluna 43
Padova Treviso 41
Padova Chioggia 38
Padova Mirano 21
Padova Venezia 36
Padova Abano_Terme 9
Padova Este 26
Padova Adria 42
Padova Porto_Tolle 62
Padova Rovigo 38
Adria Milano 230
Adria Bardolino 118
Adria Peschiera_del_Garda 115
Adria Verona 94
Adria Bassano_del_Grappa 83
Adria Marostica 83
Adria Vicenza 68
Adria Belluno 121
Adria Cortina_dAmpezzo 165
Adria Feltre 108
Adria Conegliano 94
Adria Montebelluna 80
Adria Treviso 70
Adria Chioggia 25
Adria Mirano 49
Adria Venezia 48
Adria Abano_Terme 40
Adria Este 37
Adria Padova 42
Adria Porto_Tolle 25
Adria Rovigo 21
Porto_Tolle Milano 254
Porto_Tolle Bardolino 143
Porto_Tolle Peschiera_del_Garda 140
Porto_Tolle Verona 118
Porto_Tolle Bassano_del_Grappa 102
Porto_Tolle Marostica 103
Porto_Tolle Vicenza 91
Porto_Tolle Belluno 132
Porto_Tolle Cortina_dAmpezzo 177
Porto_Tolle Feltre 123
Porto_Tolle Conegliano 104
Porto_Tolle Montebelluna 94
Porto_Tolle Treviso 80
Porto_Tolle Chioggia 30
Porto_Tolle Mirano 63
Porto_Tolle Venezia 54
Porto_Tolle Abano_Terme 62
Porto_Tolle Este 62
Porto_Tolle Padova 62
Porto_Tolle Adria 25
Porto_Tolle Rovigo 45
Rovigo Milano 209
Rovigo Bardolino 99
Rovigo Peschiera_del_Garda 95
Rovigo Verona 75
Rovigo Bassano_del_Grappa 77
Rovigo Marostica 76
Rovigo Vicenza 56
Rovigo Belluno 123
Rovigo Cortina_dAmpezzo 165
Rovigo Feltre 106
Rovigo Conegliano 99
Rovigo Montebelluna 81
Rovigo Treviso 75
Rovigo Chioggia 42
Rovigo Mirano 53
Rovigo Venezia 59
Rovigo Abano_Terme 32
Rovigo Este 20
Rovigo Padova 38
Rovigo Adria 21
Rovigo Porto_Tolle 45;
param netDemand:=
Belluno 0
Feltre 0
Cortina_dAmpezzo 0 
Padova 0
Abano_Terme 0
Este 0
Rovigo 0
Adria 0
Porto_Tolle 0
Treviso 0
Conegliano 0
Montebelluna 0
Venezia -1
Chioggia 0
Mirano 0
Verona 0
Bardolino 0
Peschiera_del_Garda 0
Vicenza 0
Bassano_del_Grappa 0
Marostica 0
Milano 1;
param packages:=
Belluno	20
Feltre	15
Cortina_dAmpezzo	10
Padova	50
Abano_Terme	25
Este	15
Rovigo	30
Adria	25
Porto_Tolle	5
Treviso	40
Conegliano	20
Montebelluna	20
Venezia	70
Chioggia	30
Mirano	25
Verona	60
Bardolino	10
Peschiera_del_Garda	15
Vicenza	45
Bassano_del_Grappa	25
Marostica	20
Milano	0;
